num_staff = 5;
work_load = [100, 100, 100, 100, 100];
num_days = 30;
unavailable = [
    {1, 10, 11, 20, 21},
    {1, 3, 10, 11, 20, 21},
    {3,16},
    {2},
    {1,2,14}
];
fixed = [
    {},
    {},
    {1},
    {12},
    {}
];
weekend_offset = 2;
adj_days_str = 1;
wed_before_weekend_str = 1;


staffWork =   [1,   2,  3, 3, 4];
desiredWork = [{4},{4},{4,5},{4,6},{4,16}];
scWork =      [ 1 , 2, 3, 4, 5];

staffNotWork =   [2   , 4];
desiredNotWork = [{4}, {2}];
scNotWork =      [ 6,   7, 8 ];


crCustomEdges = [| 2, 1 | 6, 7 | 3,4  | 7, 8 |];
max_week_day_bt = 1;
max_weekend_bt = 1; % found by previous runs with the original model
